solution/p_2_8.txt_600.col.lp
\ENCODING=ISO-8859-1
\Problem name: ilog.cplex

Maximize
 obj: 4 x_ijk_0_0_0 + 4 x_ijk_0_0_1 + 15 x_ijk_0_1_0 + 15 x_ijk_0_1_1
      + 7 x_ijk_0_2_0 + 7 x_ijk_0_2_1 + 14 x_ijk_1_0_0 + 14 x_ijk_1_0_1
      + 19 x_ijk_1_1_0 + 19 x_ijk_1_1_1 + 16 x_ijk_2_0_0 + 16 x_ijk_2_0_1
      + 12 x_ijk_2_1_0 + 12 x_ijk_2_1_1 + 8 x_ijk_2_2_0 + 8 x_ijk_2_2_1
      + 16 x_ijk_2_3_0 + 16 x_ijk_2_3_1 + 7 x_ijk_2_4_0 + 7 x_ijk_2_4_1
      + 9 x_ijk_3_0_0 + 9 x_ijk_3_0_1 + 8 x_ijk_3_1_0 + 8 x_ijk_3_1_1
      + 10 x_ijk_3_2_0 + 10 x_ijk_3_2_1 + 7 x_ijk_3_3_0 + 7 x_ijk_3_3_1
      + 4 x_ijk_3_4_0 + 4 x_ijk_3_4_1 + 3 x_ijk_4_0_0 + 3 x_ijk_4_0_1
      + 16 x_ijk_4_1_0 + 16 x_ijk_4_1_1 + 19 x_ijk_4_2_0 + 19 x_ijk_4_2_1
      + 10 x_ijk_5_0_0 + 10 x_ijk_5_0_1 + 19 x_ijk_5_1_0 + 19 x_ijk_5_1_1
      + x_ijk_5_2_0 + x_ijk_5_2_1 + 20 x_ijk_5_3_0 + 20 x_ijk_5_3_1
      + 9 x_ijk_5_4_0 + 9 x_ijk_5_4_1 + 15 x_ijk_6_0_0 + 15 x_ijk_6_0_1
      + 8 x_ijk_6_1_0 + 8 x_ijk_6_1_1 + 5 x_ijk_6_2_0 + 5 x_ijk_6_2_1
      + 8 x_ijk_6_3_0 + 8 x_ijk_6_3_1 + 16 x_ijk_7_0_0 + 16 x_ijk_7_0_1
      + 16 x_ijk_7_1_0 + 16 x_ijk_7_1_1 + x_ijk_7_2_0 + x_ijk_7_2_1
      + 12 x_ijk_7_3_0 + 12 x_ijk_7_3_1
Subject To
 c1:  9 x_ijk_0_0_0 + 7 x_ijk_0_1_0 + 8 x_ijk_0_2_0 + 33 x_ijk_1_0_0
      + 27 x_ijk_1_1_0 + 16 x_ijk_2_0_0 + 5 x_ijk_2_1_0 + 35 x_ijk_2_2_0
      + 34 x_ijk_2_3_0 + 16 x_ijk_2_4_0 + 26 x_ijk_3_0_0 + 25 x_ijk_3_1_0
      + 17 x_ijk_3_2_0 + 32 x_ijk_3_3_0 + 25 x_ijk_3_4_0 + 20 x_ijk_4_0_0
      + 33 x_ijk_4_1_0 + 3 x_ijk_4_2_0 + 19 x_ijk_5_0_0 + 38 x_ijk_5_1_0
      + 15 x_ijk_5_2_0 + 39 x_ijk_5_3_0 + 13 x_ijk_5_4_0 + 40 x_ijk_6_0_0
      + 29 x_ijk_6_1_0 + 39 x_ijk_6_2_0 + 16 x_ijk_6_3_0 + 34 x_ijk_7_0_0
      + 33 x_ijk_7_1_0 + 21 x_ijk_7_2_0 + 21 x_ijk_7_3_0 - Rgc1  = -2147483647
 c2:  14 x_ijk_0_0_1 + 16 x_ijk_0_1_1 + 37 x_ijk_0_2_1 + 10 x_ijk_1_0_1
      + 5 x_ijk_1_1_1 + 30 x_ijk_2_0_1 + 7 x_ijk_2_1_1 + 32 x_ijk_2_2_1
      + 19 x_ijk_2_3_1 + 24 x_ijk_2_4_1 + 23 x_ijk_3_0_1 + 30 x_ijk_3_1_1
      + 19 x_ijk_3_2_1 + 4 x_ijk_3_3_1 + 35 x_ijk_3_4_1 + 19 x_ijk_4_0_1
      + 13 x_ijk_4_1_1 + 3 x_ijk_4_2_1 + 2 x_ijk_5_0_1 + 13 x_ijk_5_1_1
      + 19 x_ijk_5_2_1 + x_ijk_5_3_1 + 10 x_ijk_5_4_1 + 12 x_ijk_6_0_1
      + 11 x_ijk_6_1_1 + 13 x_ijk_6_2_1 + 17 x_ijk_6_3_1 + x_ijk_7_0_1
      + 23 x_ijk_7_1_1 + 39 x_ijk_7_2_1 + 8 x_ijk_7_3_1 - Rgc2  = -2147483647
 c3:  x_ijk_0_0_0 + x_ijk_0_1_0 + x_ijk_0_2_0 - Rgc3  = -2147483647
 c4:  x_ijk_0_0_1 + x_ijk_0_1_1 + x_ijk_0_2_1 - Rgc4  = -2147483647
 c5:  x_ijk_1_0_0 + x_ijk_1_1_0 - Rgc5  = -2147483647
 c6:  x_ijk_1_0_1 + x_ijk_1_1_1 - Rgc6  = -2147483647
 c7:  x_ijk_2_0_0 + x_ijk_2_1_0 + x_ijk_2_2_0 + x_ijk_2_3_0 + x_ijk_2_4_0
      - Rgc7  = -2147483647
 c8:  x_ijk_2_0_1 + x_ijk_2_1_1 + x_ijk_2_2_1 + x_ijk_2_3_1 + x_ijk_2_4_1
      - Rgc8  = -2147483647
 c9:  x_ijk_3_0_0 + x_ijk_3_1_0 + x_ijk_3_2_0 + x_ijk_3_3_0 + x_ijk_3_4_0
      - Rgc9  = -2147483647
 c10: x_ijk_3_0_1 + x_ijk_3_1_1 + x_ijk_3_2_1 + x_ijk_3_3_1 + x_ijk_3_4_1
      - Rgc10  = -2147483647
 c11: x_ijk_4_0_0 + x_ijk_4_1_0 + x_ijk_4_2_0 - Rgc11  = -2147483647
 c12: x_ijk_4_0_1 + x_ijk_4_1_1 + x_ijk_4_2_1 - Rgc12  = -2147483647
 c13: x_ijk_5_0_0 + x_ijk_5_1_0 + x_ijk_5_2_0 + x_ijk_5_3_0 + x_ijk_5_4_0
      - Rgc13  = -2147483647
 c14: x_ijk_5_0_1 + x_ijk_5_1_1 + x_ijk_5_2_1 + x_ijk_5_3_1 + x_ijk_5_4_1
      - Rgc14  = -2147483647
 c15: x_ijk_6_0_0 + x_ijk_6_1_0 + x_ijk_6_2_0 + x_ijk_6_3_0 - Rgc15
       = -2147483647
 c16: x_ijk_6_0_1 + x_ijk_6_1_1 + x_ijk_6_2_1 + x_ijk_6_3_1 - Rgc16
       = -2147483647
 c17: x_ijk_7_0_0 + x_ijk_7_1_0 + x_ijk_7_2_0 + x_ijk_7_3_0 - Rgc17
       = -2147483647
 c18: x_ijk_7_0_1 + x_ijk_7_1_1 + x_ijk_7_2_1 + x_ijk_7_3_1 - Rgc18
       = -2147483647
Bounds
 0 <= x_ijk_0_0_0 <= 1
 0 <= x_ijk_0_0_1 <= 1
 0 <= x_ijk_0_1_0 <= 1
 0 <= x_ijk_0_1_1 <= 1
 0 <= x_ijk_0_2_0 <= 1
 0 <= x_ijk_0_2_1 <= 1
 0 <= x_ijk_1_0_0 <= 1
 0 <= x_ijk_1_0_1 <= 1
 0 <= x_ijk_1_1_0 <= 1
 0 <= x_ijk_1_1_1 <= 1
 0 <= x_ijk_2_0_0 <= 1
 0 <= x_ijk_2_0_1 <= 1
 0 <= x_ijk_2_1_0 <= 1
 0 <= x_ijk_2_1_1 <= 1
 0 <= x_ijk_2_2_0 <= 1
 0 <= x_ijk_2_2_1 <= 1
 0 <= x_ijk_2_3_0 <= 1
 0 <= x_ijk_2_3_1 <= 1
 0 <= x_ijk_2_4_0 <= 1
 0 <= x_ijk_2_4_1 <= 1
 0 <= x_ijk_3_0_0 <= 1
 0 <= x_ijk_3_0_1 <= 1
 0 <= x_ijk_3_1_0 <= 1
 0 <= x_ijk_3_1_1 <= 1
 0 <= x_ijk_3_2_0 <= 1
 0 <= x_ijk_3_2_1 <= 1
 0 <= x_ijk_3_3_0 <= 1
 0 <= x_ijk_3_3_1 <= 1
 0 <= x_ijk_3_4_0 <= 1
 0 <= x_ijk_3_4_1 <= 1
 0 <= x_ijk_4_0_0 <= 1
 0 <= x_ijk_4_0_1 <= 1
 0 <= x_ijk_4_1_0 <= 1
 0 <= x_ijk_4_1_1 <= 1
 0 <= x_ijk_4_2_0 <= 1
 0 <= x_ijk_4_2_1 <= 1
 0 <= x_ijk_5_0_0 <= 1
 0 <= x_ijk_5_0_1 <= 1
 0 <= x_ijk_5_1_0 <= 1
 0 <= x_ijk_5_1_1 <= 1
 0 <= x_ijk_5_2_0 <= 1
 0 <= x_ijk_5_2_1 <= 1
 0 <= x_ijk_5_3_0 <= 1
 0 <= x_ijk_5_3_1 <= 1
 0 <= x_ijk_5_4_0 <= 1
 0 <= x_ijk_5_4_1 <= 1
 0 <= x_ijk_6_0_0 <= 1
 0 <= x_ijk_6_0_1 <= 1
 0 <= x_ijk_6_1_0 <= 1
 0 <= x_ijk_6_1_1 <= 1
 0 <= x_ijk_6_2_0 <= 1
 0 <= x_ijk_6_2_1 <= 1
 0 <= x_ijk_6_3_0 <= 1
 0 <= x_ijk_6_3_1 <= 1
 0 <= x_ijk_7_0_0 <= 1
 0 <= x_ijk_7_0_1 <= 1
 0 <= x_ijk_7_1_0 <= 1
 0 <= x_ijk_7_1_1 <= 1
 0 <= x_ijk_7_2_0 <= 1
 0 <= x_ijk_7_2_1 <= 1
 0 <= x_ijk_7_3_0 <= 1
 0 <= x_ijk_7_3_1 <= 1
 0 <= Rgc1 <= 2147483712
 0 <= Rgc2 <= 2147483726
 0 <= Rgc3 <= 2147483648
 0 <= Rgc4 <= 2147483648
 0 <= Rgc5 <= 2147483648
 0 <= Rgc6 <= 2147483648
 0 <= Rgc7 <= 2147483648
 0 <= Rgc8 <= 2147483648
 0 <= Rgc9 <= 2147483648
 0 <= Rgc10 <= 2147483648
 0 <= Rgc11 <= 2147483648
 0 <= Rgc12 <= 2147483648
 0 <= Rgc13 <= 2147483648
 0 <= Rgc14 <= 2147483648
 0 <= Rgc15 <= 2147483648
 0 <= Rgc16 <= 2147483648
 0 <= Rgc17 <= 2147483648
 0 <= Rgc18 <= 2147483648
Generals
 x_ijk_0_0_0  x_ijk_0_0_1  x_ijk_0_1_0  x_ijk_0_1_1  x_ijk_0_2_0  x_ijk_0_2_1 
 x_ijk_1_0_0  x_ijk_1_0_1  x_ijk_1_1_0  x_ijk_1_1_1  x_ijk_2_0_0  x_ijk_2_0_1 
 x_ijk_2_1_0  x_ijk_2_1_1  x_ijk_2_2_0  x_ijk_2_2_1  x_ijk_2_3_0  x_ijk_2_3_1 
 x_ijk_2_4_0  x_ijk_2_4_1  x_ijk_3_0_0  x_ijk_3_0_1  x_ijk_3_1_0  x_ijk_3_1_1 
 x_ijk_3_2_0  x_ijk_3_2_1  x_ijk_3_3_0  x_ijk_3_3_1  x_ijk_3_4_0  x_ijk_3_4_1 
 x_ijk_4_0_0  x_ijk_4_0_1  x_ijk_4_1_0  x_ijk_4_1_1  x_ijk_4_2_0  x_ijk_4_2_1 
 x_ijk_5_0_0  x_ijk_5_0_1  x_ijk_5_1_0  x_ijk_5_1_1  x_ijk_5_2_0  x_ijk_5_2_1 
 x_ijk_5_3_0  x_ijk_5_3_1  x_ijk_5_4_0  x_ijk_5_4_1  x_ijk_6_0_0  x_ijk_6_0_1 
 x_ijk_6_1_0  x_ijk_6_1_1  x_ijk_6_2_0  x_ijk_6_2_1  x_ijk_6_3_0  x_ijk_6_3_1 
 x_ijk_7_0_0  x_ijk_7_0_1  x_ijk_7_1_0  x_ijk_7_1_1  x_ijk_7_2_0  x_ijk_7_2_1 
 x_ijk_7_3_0  x_ijk_7_3_1 
End
